InboundTrucks  = 40;
OutboundTrucks = 20;
InboundDoors   = 8;
OutboundDoors  = 4;
ReleaseTime    = [72,45,94,30,2,40,113,118,80,70,83,117,108,79,43,72,102,74,86,82,16,53,90,54,76,112,104,106,110,84,116,77,80,118,104,22,47,21,88,83];
UnloadTime     = [16,21,17,6,17,4,12,22,7,2,11,5,19,1,12,3,5,23,19,11,12,9,7,8,3,25,5,7,17,5,4,10,21,18,5,20,18,4,1,16];
LoadTime       = [11,7,8,1,2,2,18,6,12,12,9,8,15,10,18,2,10,8,3,6];
TransferTime   = [| 0,0,0,0,0,7,0,0,0,3,1,0,0,0,2,8,3,0,0,0 | 0,0,0,0,0,1,1,0,0,4,0,0,5,8,0,0,0,3,1,0 | 1,0,5,0,0,0,0,0,0,6,0,0,8,4,0,3,0,0,0,4 | 0,0,0,0,0,0,0,0,0,4,0,3,0,0,5,0,2,0,0,0 | 0,1,0,0,6,0,0,0,0,2,11,0,0,0,0,0,0,0,0,0 | 0,0,0,0,0,0,0,0,0,0,2,0,0,0,0,0,2,0,0,4 | 0,0,0,0,5,0,0,0,0,0,0,0,0,4,0,0,0,0,6,0 | 3,0,0,0,0,0,0,0,0,0,0,0,0,0,0,0,0,0,0,2 | 0,5,0,0,0,5,3,0,0,0,0,0,0,10,0,0,0,0,0,0 | 0,0,0,0,13,0,0,1,0,0,0,0,0,2,0,2,0,5,4,0 | 0,0,0,0,2,0,0,7,0,0,0,0,0,1,0,4,0,0,0,0 | 2,2,7,2,0,0,0,0,0,1,4,0,6,0,0,0,1,0,0,0 | 0,1,0,0,8,0,0,0,0,3,0,0,0,2,0,0,5,0,0,0 | 5,0,0,0,0,0,6,0,0,0,0,1,0,0,0,0,0,3,0,0 | 2,0,0,0,0,4,0,0,0,0,0,0,0,0,0,0,0,0,4,5 | 3,0,0,0,0,0,0,0,5,0,0,1,0,0,6,0,0,0,0,0 | 0,0,3,5,0,0,4,5,0,0,0,0,0,0,0,0,6,0,0,3 | 5,0,0,0,0,0,0,5,0,0,0,1,0,0,0,0,0,0,0,3 | 0,3,0,0,0,0,0,0,0,0,7,0,0,0,0,0,5,0,0,0 | 0,8,0,0,0,0,0,0,0,1,0,0,7,0,0,6,0,0,0,0 | 0,3,0,0,0,1,0,0,0,3,4,0,0,8,0,0,1,0,0,8 | 0,0,0,0,0,0,0,0,0,2,2,0,0,0,0,0,0,0,0,0 | 0,0,0,0,0,0,0,0,1,0,5,1,0,7,0,0,0,0,0,0 | 0,0,8,0,0,1,0,0,0,0,0,0,0,0,0,0,0,0,1,0 | 4,2,0,0,5,0,0,0,3,0,0,0,0,3,0,0,1,0,0,0 | 0,0,0,2,0,0,0,0,0,0,0,0,0,0,0,2,0,0,0,0 | 0,0,1,0,3,0,2,0,3,0,0,0,4,4,0,5,0,0,0,1 | 0,0,0,0,0,0,2,0,0,0,0,0,4,0,0,0,0,0,13,0 | 0,0,0,0,5,0,2,0,3,0,0,0,0,4,3,8,0,0,0,0 | 4,0,0,3,0,0,0,0,0,0,0,0,0,0,0,0,0,0,0,4 | 0,0,0,0,0,1,3,0,0,0,0,0,4,0,0,0,0,14,2,0 | 6,0,0,0,0,0,0,0,0,0,0,0,5,0,0,0,8,1,3,0 | 0,10,0,3,8,3,14,0,0,0,0,0,4,0,0,0,0,0,3,0 | 0,0,5,12,0,0,0,8,5,0,0,0,0,4,0,5,0,0,0,0 | 0,0,0,0,0,2,0,0,0,0,0,0,2,0,0,0,0,4,2,0 | 5,0,0,1,0,0,0,0,0,0,0,3,0,0,0,0,0,0,0,0 | 0,0,0,0,0,0,0,0,0,0,0,0,0,10,0,5,0,0,0,4 | 4,0,0,5,0,0,0,5,0,0,0,2,0,0,0,0,0,0,7,2 | 2,4,0,0,0,0,0,0,0,1,5,0,0,0,0,0,1,0,0,0 | 3,0,0,0,0,0,0,0,0,0,0,0,0,5,0,5,0,0,0,0 |];
